outputs/case_26.model.txt
invest_in_insurance_agent = False
invest_in_futures = False
adjustment_extension_times = 0
invest_in_futures_trust = False
invest_in_specialized_bank = False
prohibited_pledge_of_shares = True
invest_in_futures_broker = False
regulator_orders_disposal = False
invest_in_bill_finance = False
shareholder_is_same_person_or_related = False
hold_shares_exceed_without_approval = False
adjustment_order_issued = True
adjustment_deadline_years = 3
investment_made = False
invest_in_foreign_financial_institution_approved = False
director_or_supervisor_dismissed_or_suspended = False
invest_in_bank = False
license_revoked = False
improvement_ordered = True
invest_in_property_insurance = False
invest_in_other_financial_related_approved = True
business_days_since_application = 0
adjustment_extension_years_per_extension = 0
invest_in_credit_card = False
subsidiary_capital_reduction = False
exceeding_shares_no_voting_right = False
capital_reduction_approval_obtained = True
application_submitted = False
invest_in_insurance = False
invest_in_trust_investment_company = True
subsidiary_investment_exceed_limit = False
subsidiary_shares_disposed = False
invest_in_reinsurance_company = False
invest_in_securities_investment_trust = False
invest_in_securities = False
invest_in_insurance_broker = True
invest_in_fhc = False
approval_obtained = True
invest_in_trust = False
subsidiary_business_suspension = False
statutory_meeting_resolution_revoked = False
manager_or_staff_dismissed = False
invest_in_futures_advisor = True
invest_in_commercial_bank = False
invest_in_securities_firm = False
venture_invested_company_manager = False
invest_in_venture_capital = False
fhc_officer_or_staff = True
disapproval_expressed = False
subsidiary_business_exceed_limit = False
other_necessary_measures_taken = False
invest_in_securities_investment_advisor = True
invest_in_leveraged_trader = False
invest_in_life_insurance = False
correction_ordered = True
invest_in_futures_manager = False
pledge_to_subsidiary = False
adjustment_deadline_within_limit = True
internal_control_and_audit_established = True
investment_without_approval_prohibited = True
futures_investment_subtypes_ok = True
internal_control_and_audit_system_executed = True
legal_person_related_definition_met = True
securities_investment_subtypes_ok = True
violation_penalty_conditions = True
related_persons_definition_ok = True
subsidiary_business_scope_ok = True
reporting_obligation_met = True
internal_control_and_audit_executed = True
investment_approval_scope = True
approval_obtained_for_thresholds = True
investment_approval_status = True
shareholding_exceedance_penalty = False
natural_person_related_definition_met = True
internal_control_and_audit_system_established = True
subsidiary_business_management = True
subsidiary_capital_reduction_approval_required = True
prohibited_manager_in_venture_invested_company = True
penalty = False
reporting_and_approval_compliance = True
insurance_investment_subtypes_ok = True
bank_investment_subtypes_ok = True
subsidiary_business_investment = True
subsidiary_business_or_investment_exceed_limit = False
adjustment_ordered = True